NAME : sim51.72198.tour
COMMENT : Length = 72198
COMMENT : Found by LKH [Keld Helsgaun] Wed Aug 29 08:39:52 2018
TYPE : TOUR
DIMENSION : 51
TOUR_SECTION
1
22
46
20
34
47
29
7
39
15
6
11
25
17
13
24
50
33
48
16
45
5
31
19
8
44
2
10
18
9
26
32
23
51
49
4
3
21
35
12
27
43
28
41
36
37
40
14
38
30
42
-1
EOF
